NAME: ./prFile/tspFile/tsp_file84.tsp
COMMENT: TSP file generated by Python
TYPE: TSP
DIMENSION: 40
EDGE_WEIGHT_TYPE: EUC_2D
NODE_COORD_SECTION
1 55 98
2 53 21
3 75 19
4 32 67
5 76 45
6 30 36
7 65 43
8 37 72
9 54 93
10 65 82
11 94 4
12 29 19
13 16 12
14 24 93
15 65 54
16 27 90
17 26 60
18 78 18
19 40 62
20 55 26
21 95 79
22 78 58
23 16 49
24 12 100
25 77 60
26 69 32
27 68 37
28 23 10
29 59 24
30 88 56
31 61 90
32 57 8
33 9 38
34 23 32
35 88 73
36 14 15
37 28 62
38 36 21
39 82 43
40 21 99
EOF
